$molecule
0 1
  C    0.0000000   -0.0147269    0.7156012
  O    0.0000000    0.0695525   -0.6801439
  H    0.0000000    1.0112743    1.1376602
  H    0.0000000   -0.8665191   -1.0095561
  H    0.9151188   -0.5366486    1.0703452
  H   -0.9151188   -0.5366486    1.0703452
$end

$rem
MAX_SCF_CYCLES 2000
SCF_ALGORITHM DIIS_GDM
method wb97x-d3
basis cc-pvdz
GUI 2
sym_ignore true
symmetry false
PRINT_GENERAL_BASIS = TRUE
purecart 1111
PRINT_ORBITALS 10000000000
unrestricted true
$end

